NAME : n80w140.003.580.tour
COMMENT : Length = 580
COMMENT : Found by LKH [Keld Helsgaun] Tue May  2 05:19:07 2017
TYPE : TOUR
DIMENSION : 81
TOUR_SECTION
1
53
20
46
43
58
55
36
11
41
68
29
70
80
65
54
57
72
28
5
13
12
62
45
19
33
25
59
40
74
50
18
39
30
63
34
21
73
52
35
9
8
6
22
77
47
32
15
44
4
48
56
7
66
60
17
23
75
24
79
42
16
69
14
76
37
10
3
26
64
49
31
51
71
67
27
2
81
61
78
38
-1
EOF
